p cnf 167 156
-1 81 -2 8 17 154 -161 -165 0 
-3 5 66 92 93 109 111 113 114 115 116 117 118 120 142 143 144 154 -161 -165 0 
-4 22 41 99 101 128 145 154 -161 -165 0 
-5 3 66 92 93 109 111 113 114 115 116 117 118 120 142 143 144 154 -161 -165 0 
-6 13 37 87 102 153 154 -161 -165 0 
-7 -8 2 17 -9 18 45 48 70 73 75 76 91 98 148 -10 20 71 -11 19 46 72 74 154 -161 -165 0 
-12 59 95 150 -13 6 37 87 102 153 154 -161 -165 0 
-14 155 -161 -165 0 
-15 26 32 33 89 103 123 156 -161 -165 0 
-16 157 0 
-17 2 8 -18 9 45 48 70 73 75 76 91 98 148 -7 -19 11 46 72 74 -20 10 71 -21 154 -161 -165 0 
-22 4 41 99 101 128 145 154 -161 -165 0 
-23 -24 158 0 
-25 35 44 -26 15 32 33 89 103 123 158 0 
-27 38 -28 158 0 
-29 39 -30 156 -161 -165 0 
-31 -28 158 0 
-32 15 26 33 89 103 123 154 -161 -165 0 
-33 15 26 32 89 103 123 -34 154 -161 -165 0 
-35 25 44 -34 -36 152 154 -161 -165 0 
-1 81 -37 6 13 87 102 153 -38 27 154 -161 -165 0 
-39 29 -25 35 44 157 0 
-40 -41 4 22 99 101 128 145 154 -161 -165 0 
-42 83 -40 -43 53 133 154 -161 -165 0 
-44 25 35 -45 9 18 48 70 73 75 76 91 98 148 -46 11 19 72 74 -47 154 -161 -165 0 
-14 -17 2 8 -48 9 18 45 70 73 75 76 91 98 148 154 -161 -165 0 
-30 154 -161 -165 0 
-13 6 37 87 102 153 154 -161 -165 0 
-49 78 154 -161 -165 0 
-50 52 57 65 90 124 125 126 134 154 -161 -165 0 
-51 154 -161 -165 0 
-52 50 57 65 90 124 125 126 134 154 -161 -165 0 
-53 43 133 155 -161 -165 0 
-12 59 95 150 154 -161 -165 0 
-13 6 37 87 102 153 -54 154 -161 -165 0 
-55 64 154 -161 -165 0 
-56 104 110 154 -161 -165 0 
-57 50 52 65 90 124 125 126 134 159 0 
-39 29 -58 157 0 
-59 12 95 150 157 0 
-60 157 0 
-61 160 0 
-50 52 57 65 90 124 125 126 134 -13 6 37 87 102 153 -62 84 -12 59 95 150 154 -161 -165 0 
-35 25 44 -12 59 95 150 -63 146 -64 55 154 -161 -165 0 
-65 50 52 57 90 124 125 126 134 157 0 
-66 3 5 92 93 109 111 113 114 115 116 117 118 120 142 143 144 155 -161 -165 0 
-67 155 -161 -165 0 
-68 155 -161 -165 0 
-69 82 155 -161 -165 0 
-8 2 17 -70 9 18 45 48 73 75 76 91 98 148 -71 10 20 -72 11 19 46 74 -21 154 -161 -165 0 
-25 35 44 -54 -73 9 18 45 48 70 75 76 91 98 148 -74 11 19 46 72 157 0 
-17 2 8 -54 -75 9 18 45 48 70 73 76 91 98 148 161 -165 0 
-2 8 17 -7 -76 9 18 45 48 70 73 75 91 98 148 154 -161 -165 0 
-42 83 -77 112 138 154 -161 -165 0 
-78 49 -42 83 154 -161 -165 0 
-79 -1 81 -38 27 -80 154 -161 -165 0 
-81 1 -82 69 -29 39 -83 42 -84 62 156 -161 -165 0 
-29 39 -83 42 156 -161 -165 0 
-49 78 -51 -44 25 35 -12 59 95 150 154 -161 -165 0 
-85 151 -86 155 -161 -165 0 
-87 6 13 37 102 153 157 0 
-88 122 -83 42 157 0 
-89 15 26 32 33 103 123 159 0 
-90 50 52 57 65 124 125 126 134 154 -161 -165 0 
-17 2 8 -91 9 18 45 48 70 73 75 76 98 148 -7 -19 11 46 72 74 -10 20 71 154 -161 -165 0 
-92 3 5 66 93 109 111 113 114 115 116 117 118 120 142 143 144 154 -161 -165 0 
-93 3 5 66 92 109 111 113 114 115 116 117 118 120 142 143 144 154 -161 -165 0 
-8 2 17 -94 154 -161 -165 0 
-95 12 59 150 154 -161 -165 0 
-96 -97 140 141 154 -161 -165 0 
-25 35 44 155 -161 -165 0 
-37 6 13 87 102 153 154 -161 -165 0 
-8 2 17 -21 154 -161 -165 0 
-44 25 35 -30 -7 -98 9 18 45 48 70 73 75 76 91 148 -46 11 19 72 74 154 -161 -165 0 
-99 4 22 41 101 128 145 154 -161 -165 0 
-100 154 -161 -165 0 
-54 -2 8 17 154 -161 -165 0 
-14 154 -161 -165 0 
-41 4 22 99 101 128 145 154 -161 -165 0 
-101 4 22 41 99 128 145 154 -161 -165 0 
-102 6 13 37 87 153 154 -161 -165 0 
-103 15 26 32 33 89 123 154 -161 -165 0 
-54 157 0 
-44 25 35 -30 -54 154 -161 -165 0 
-100 -104 56 110 154 -161 -165 0 
-30 -17 2 8 -105 -106 154 -161 -165 0 
-7 -107 154 -161 -165 0 
-17 2 8 -106 154 -161 -165 0 
-17 2 8 154 -161 -165 0 
-54 -17 2 8 154 -161 -165 0 
-78 49 154 -161 -165 0 
-88 122 -25 35 44 157 0 
-108 -43 53 133 154 -161 -165 0 
-109 3 5 66 92 93 111 113 114 115 116 117 118 120 142 143 144 154 -161 -165 0 
-12 59 95 150 -54 154 -161 -165 0 
-110 56 104 154 -161 -165 0 
-100 -54 -17 2 8 154 -161 -165 0 
-111 3 5 66 92 93 109 113 114 115 116 117 118 120 142 143 144 155 -161 -165 0 
-112 77 138 155 -161 -165 0 
-113 3 5 66 92 93 109 111 114 115 116 117 118 120 142 143 144 155 -161 -165 0 
-114 3 5 66 92 93 109 111 113 115 116 117 118 120 142 143 144 155 -161 -165 0 
-115 3 5 66 92 93 109 111 113 114 116 117 118 120 142 143 144 162 -161 -165 0 
-116 3 5 66 92 93 109 111 113 114 115 117 118 120 142 143 144 162 -161 -165 0 
-117 3 5 66 92 93 109 111 113 114 115 116 118 120 142 143 144 162 -161 -165 0 
-118 3 5 66 92 93 109 111 113 114 115 116 117 120 142 143 144 162 -161 -165 0 
-119 156 -161 -165 0 
-120 3 5 66 92 93 109 111 113 114 115 116 117 118 142 143 144 154 -161 -165 0 
-25 35 44 154 -161 -165 0 
-121 139 154 -161 -165 0 
-122 88 -17 2 8 158 0 
-6 13 37 87 102 153 -17 2 8 154 -161 -165 0 
-27 38 -52 50 57 65 90 124 125 126 134 -17 2 8 154 -161 -165 0 
-14 -17 2 8 -7 -48 9 18 45 70 73 75 76 91 98 148 154 -161 -165 0 
-123 15 26 32 33 89 103 154 -161 -165 0 
-124 50 52 57 65 90 125 126 134 154 -161 -165 0 
-125 50 52 57 65 90 124 126 134 154 -161 -165 0 
-126 50 52 57 65 90 124 125 134 154 -161 -165 0 
-7 154 -161 -165 0 
-127 154 -161 -165 0 
-44 25 35 154 -161 -165 0 
-128 4 22 41 99 101 145 154 -161 -165 0 
-17 2 8 -46 11 19 72 74 163 -167 0 
-64 55 154 -161 -165 0 
-129 164 0 
-130 157 0 
-131 155 -161 -165 0 
-132 155 -161 -165 0 
-133 43 53 157 0 
-134 50 52 57 65 90 124 125 126 155 -161 -165 0 
-135 165 -161 0 
-136 154 -161 -165 0 
-14 -119 154 -161 -165 0 
-137 155 -161 -165 0 
-30 -138 77 112 154 -161 -165 0 
-119 -139 121 154 -161 -165 0 
-14 -119 -7 154 -161 -165 0 
-14 -12 59 95 150 -50 52 57 65 90 124 125 126 134 154 -161 -165 0 
-96 -140 97 141 154 -161 -165 0 
-100 -54 -141 97 140 154 -161 -165 0 
-142 3 5 66 92 93 109 111 113 114 115 116 117 118 120 143 144 -7 154 -161 -165 0 
-143 3 5 66 92 93 109 111 113 114 115 116 117 118 120 142 144 154 -161 -165 0 
-144 3 5 66 92 93 109 111 113 114 115 116 117 118 120 142 143 154 -161 -165 0 
-145 4 22 41 99 101 128 154 -161 -165 0 
-146 63 154 -161 -165 0 
-147 166 0 
-17 2 8 167 -163 0 
-97 140 141 154 -161 -165 0 
-17 2 8 -148 9 18 45 48 70 73 75 76 91 98 154 -161 -165 0 
-17 2 8 -91 9 18 45 48 70 73 75 76 98 148 -7 -19 11 46 72 74 154 -161 -165 0 
-149 160 0 
-50 52 57 65 90 124 125 126 134 -12 59 95 150 -62 84 -13 6 37 87 102 153 154 -161 -165 0 
-150 12 59 95 -42 83 -151 85 154 -161 -165 0 
-87 6 13 37 102 153 -152 36 157 0 
-153 6 13 37 87 102 -122 88 -134 50 52 57 65 90 124 125 126 158 0 
-49 78 -2 8 17 154 -161 -165 0 
-86 155 -161 -165 0 
